NAME   JuMPModel
ROWS
 N  OBJ
 E  CON1
 E  CON2
 E  CON3
 L  CON4
 L  CON5
 L  CON6
 L  CON7
 L  CON8
 L  CON9
 L  CON10
 L  CON11
 L  CON12
 L  CON13
COLUMNS
    MARKER    'MARKER'                 'INTORG'
    VAR1  CON1  1
    VAR1  CON4  -1
    VAR1  CON12  -1
    VAR1  OBJ  1
    VAR2  CON1  1
    VAR2  CON8  -1
    VAR2  CON13  -1
    VAR2  OBJ  1
    VAR3  CON1  1
    VAR3  CON5  -1
    VAR3  CON6  -1
    VAR3  OBJ  1
    VAR4  CON1  1
    VAR4  CON10  -1
    VAR4  OBJ  1
    VAR5  CON1  1
    VAR5  CON7  -1
    VAR5  CON11  -1
    VAR5  OBJ  1
    VAR6  CON2  1
    VAR6  CON9  -1
    VAR6  OBJ  1
    VAR7  CON12  1
    VAR7  CON13  1
    VAR7  OBJ  -1
    VAR8  CON4  1
    VAR8  CON5  1
    VAR8  OBJ  -1
    VAR9  CON8  1
    VAR9  CON9  1
    VAR9  OBJ  -1
    VAR10  CON6  1
    VAR10  CON7  1
    VAR10  OBJ  -1
    VAR11  CON10  1
    VAR11  CON11  1
    VAR11  OBJ  -1
    MARKER    'MARKER'                 'INTEND'
RHS
    rhs    CON1    3
    rhs    CON2    0
    rhs    CON3    0
    rhs    CON4    0
    rhs    CON5    0
    rhs    CON6    0
    rhs    CON7    0
    rhs    CON8    0
    rhs    CON9    0
    rhs    CON10    0
    rhs    CON11    0
    rhs    CON12    0
    rhs    CON13    0
BOUNDS
  UP BOUND VAR1 1
  UP BOUND VAR2 1
  UP BOUND VAR3 1
  UP BOUND VAR4 1
  UP BOUND VAR5 1
  UP BOUND VAR6 1
  UP BOUND VAR7 1
  UP BOUND VAR8 1
  UP BOUND VAR9 1
  UP BOUND VAR10 1
  UP BOUND VAR11 1
ENDATA
